# Solution for model GasLib-40
# Objective value = 4.4114067454576677e+01
loadshed[innode_1] 0
loadshed[innode_2] 0
loadshed[innode_3] 0
loadshed[innode_4] 0
loadshed[innode_5] 0
loadshed[innode_6] 0
loadshed[innode_7] 0
loadshed[innode_8] 0
loadshed[source_1] -1.0321422550924786e-01
loadshed[source_2] 5.7039684843592231e-02
loadshed[source_3] 3.2521805981602658e-01
loadshed[sink_1] 0
loadshed[sink_2] 0
loadshed[sink_3] 0
loadshed[sink_4] 0
loadshed[sink_5] 0
loadshed[sink_6] 0
loadshed[sink_7] 0
loadshed[sink_8] 0
loadshed[sink_9] 0
loadshed[sink_10] 0
loadshed[sink_11] 0
loadshed[sink_12] 1
loadshed[sink_13] 0
loadshed[sink_14] 0
loadshed[sink_15] 0
loadshed[sink_16] 0
loadshed[sink_17] 0
loadshed[sink_18] 0
loadshed[sink_19] 0
loadshed[sink_20] 0
loadshed[sink_21] 1
loadshed[sink_22] 0
loadshed[sink_23] 0
loadshed[sink_24] 0.697420685120612
loadshed[sink_25] 0
loadshed[sink_26] 0
loadshed[sink_27] 0
loadshed[sink_28] 0
loadshed[sink_29] 0
flow[source_1,sink_3] 1.7440744335915298e+02
flow[innode_1,sink_16] 1.6354166666666970e+01
flow[innode_6,sink_13] 7.8027023035547955e+00
flow[sink_13,sink_14] -8.5514643631118723e+00
flow[sink_14,sink_10] -2.4905631029778540e+01
flow[sink_25,sink_26] 1.1584214355690199e+02
flow[sink_26,sink_9] 3.2708333333334551e+01
flow[sink_9,sink_18] 1.6354166666667879e+01
flow[sink_26,sink_4] 6.6779643556900666e+01
flow[sink_4,sink_20] 5.0425476890233995e+01
flow[sink_18,sink_6] 0
flow[sink_25,innode_8] -1.4169911002581662e+02
flow[sink_6,sink_7] -4.9062500000000313e+01
flow[sink_6,sink_22] 3.2708333333333641e+01
flow[sink_7,sink_24] 4.9484325454233247e+00
flow[sink_22,sink_1] 1.6354166666666970e+01
flow[sink_24,sink_21] 0
flow[sink_21,sink_12] 0
flow[sink_7,sink_5] -70.3650992120903
flow[sink_5,sink_17] -8.6719265878756971e+01
flow[sink_17,sink_4] 0
flow[sink_17,sink_8] -1.0307343254542363e+02
flow[sink_3,sink_23] 16.3541666666697
flow[sink_8,sink_20] -1.1942759921209030e+02
flow[sink_25,sink_20] 8.5356288988522948e+01
flow[sink_25,sink_15] -8.3656191489829510e+01
flow[sink_15,sink_29] -5.6555499918918876e+01
flow[sink_29,sink_28] 1.6354166666667879e+01
flow[sink_29,sink_2] 5.9809024904243969e+01
flow[sink_2,sink_15] 4.3454858237577305e+01
flow[sink_29,innode_7] -1.4907285815649738e+02
flow[innode_4,sink_19] 0
flow[sink_19,innode_3] 3.6096135723220740e+01
flow[innode_4,innode_5] 1.0667646436311219e+02
flow[sink_27,innode_5] -1.0667646436311219e+02
flow[sink_27,sink_19] 9.0322297696445517e+01
flow[sink_10,sink_11] 3.2708333333333641e+01
flow[sink_10,innode_2] -3.7871995306558105e+01
flow[sink_10,innode_3] -3.6096135723220740e+01
flow[innode_6,sink_25] -7.8027023035547955e+00
flow[sink_11,innode_1] 1.6354166666666970e+01
flow[sink_19,innode_2] 3.7871995306558105e+01
flow[source_3,innode_4] 1.0667646436311219e+02
flow[source_2,innode_7] 1.4907285815649738e+02
flow[sink_3,innode_8] 1.4169911002581662e+02
pressure[innode_1] 7.5962009006184530e+01
pressure[innode_2] 7.8115401682203114e+01
pressure[innode_3] 78.035470877088
pressure[innode_4] 81.01325
pressure[innode_5] 8.0939872302743666e+01
pressure[innode_6] 7.4963420357167038e+01
pressure[innode_7] 81.01325
pressure[innode_8] 8.0430272542908639e+01
pressure[source_1] 81.01325
pressure[source_2] 81.01325
pressure[source_3] 81.01325
pressure[sink_1] 3.9042477630425960e+00
pressure[sink_2] 7.5511104937161477e+01
pressure[sink_3] 8.0430272542908639e+01
pressure[sink_4] 58.3141895015152
pressure[sink_5] 3.5943131057549834e+01
pressure[sink_6] 6.00532537342997
pressure[sink_7] 6.6788365511301011e+00
pressure[sink_8] 4.6292317928791476e+01
pressure[sink_9] 6.4847048048888055e+01
pressure[sink_10] 7.6113710313788076e+01
pressure[sink_11] 7.5962009006184530e+01
pressure[sink_12] 1.01325
pressure[sink_13] 7.4920405363320228e+01
pressure[sink_14] 7.4935708937221719e+01
pressure[sink_15] 7.5369234402312287e+01
pressure[sink_16] 7.4940359171366850e+01
pressure[sink_17] 4.2403089540659643e+01
pressure[sink_18] 6.4255305555088356e+01
pressure[sink_19] 7.8115401682203114e+01
pressure[sink_20] 5.4614742051176606e+01
pressure[sink_21] 1.01325
pressure[sink_22] 4.9680169053976062e+00
pressure[sink_23] 8.0265554531248853e+01
pressure[sink_24] 1.01325
pressure[sink_25] 7.4963420357167038e+01
pressure[sink_26] 6.6804726216772664e+01
pressure[sink_27] 8.0054654765441171e+01
pressure[sink_28] 7.6730852762947393e+01
pressure[sink_29] 7.7026135036564582e+01
interdiction[source_1,sink_3] 0
interdiction[innode_1,sink_16] 0
interdiction[innode_6,sink_13] 0
interdiction[sink_13,sink_14] 0
interdiction[sink_14,sink_10] 0
interdiction[sink_25,sink_26] 0
interdiction[sink_26,sink_9] 0
interdiction[sink_9,sink_18] 0
interdiction[sink_26,sink_4] 0
interdiction[sink_4,sink_20] 0
interdiction[sink_18,sink_6] 1
interdiction[sink_25,innode_8] 0
interdiction[sink_6,sink_7] 0
interdiction[sink_6,sink_22] 0
interdiction[sink_7,sink_24] 0
interdiction[sink_22,sink_1] 0
interdiction[sink_24,sink_21] 0
interdiction[sink_21,sink_12] 0
interdiction[sink_7,sink_5] 0
interdiction[sink_5,sink_17] 0
interdiction[sink_17,sink_4] 1
interdiction[sink_17,sink_8] 0
interdiction[sink_3,sink_23] 0
interdiction[sink_8,sink_20] 0
interdiction[sink_25,sink_20] 0
interdiction[sink_25,sink_15] 0
interdiction[sink_15,sink_29] 0
interdiction[sink_29,sink_28] 0
interdiction[sink_29,sink_2] 0
interdiction[sink_2,sink_15] 0
interdiction[sink_29,innode_7] 0
interdiction[innode_4,sink_19] 1
interdiction[sink_19,innode_3] 0
interdiction[innode_4,innode_5] 0
interdiction[sink_27,innode_5] 0
interdiction[sink_27,sink_19] 0
interdiction[sink_10,sink_11] 0
interdiction[sink_10,innode_2] 0
interdiction[sink_10,innode_3] 0
interdiction[innode_6,sink_25] 0
interdiction[sink_11,innode_1] 0
interdiction[sink_19,innode_2] 0
interdiction[source_3,innode_4] 0
interdiction[source_2,innode_7] 0
interdiction[sink_3,innode_8] 0
WCcheckFlow[source_1,sink_3] 39
WCcheckFlow[innode_1,sink_16] 1
WCcheckFlow[innode_6,sink_13] 13
WCcheckFlow[sink_13,sink_14] 12
WCcheckFlow[sink_14,sink_10] 11
WCcheckFlow[sink_25,sink_26] 15
WCcheckFlow[sink_26,sink_9] 2
WCcheckFlow[sink_9,sink_18] 1
WCcheckFlow[sink_26,sink_4] 12
WCcheckFlow[sink_4,sink_20] 11
WCcheckFlow[sink_18,sink_6] 0
WCcheckFlow[sink_25,innode_8] -36
WCcheckFlow[sink_6,sink_7] -3
WCcheckFlow[sink_6,sink_22] 2
WCcheckFlow[sink_7,sink_24] 3
WCcheckFlow[sink_22,sink_1] 1
WCcheckFlow[sink_24,sink_21] 2
WCcheckFlow[sink_21,sink_12] 1
WCcheckFlow[sink_7,sink_5] -7
WCcheckFlow[sink_5,sink_17] -8
WCcheckFlow[sink_17,sink_4] 0
WCcheckFlow[sink_17,sink_8] -9
WCcheckFlow[sink_3,sink_23] 1
WCcheckFlow[sink_8,sink_20] -10
WCcheckFlow[sink_25,sink_20] 0
WCcheckFlow[sink_25,sink_15] 6
WCcheckFlow[sink_15,sink_29] 5
WCcheckFlow[sink_29,sink_28] 1
WCcheckFlow[sink_29,sink_2] 1
WCcheckFlow[sink_2,sink_15] 0
WCcheckFlow[sink_29,innode_7] 2
WCcheckFlow[innode_4,sink_19] 0
WCcheckFlow[sink_19,innode_3] -5
WCcheckFlow[innode_4,innode_5] -2
WCcheckFlow[sink_27,innode_5] 3
WCcheckFlow[sink_27,sink_19] -4
WCcheckFlow[sink_10,sink_11] 3
WCcheckFlow[sink_10,innode_2] 1
WCcheckFlow[sink_10,innode_3] 6
WCcheckFlow[innode_6,sink_25] -14
WCcheckFlow[sink_11,innode_1] 2
WCcheckFlow[sink_19,innode_2] 0
WCcheckFlow[source_3,innode_4] -1
WCcheckFlow[source_2,innode_7] -1
WCcheckFlow[sink_3,innode_8] 37
